p cnf 200 1110
-101 -96 0
-101 35 0
-101 41 0
-101 31 0
-101 -87 0
-101 66 0
-101 27 0
-101 -75 0
-101 40 0
-101 69 0
101 96 -35 -41 -31 87 -66 -27 75 -40 -69 0
-102 40 0
-102 -76 0
-102 -20 0
-102 -72 0
-102 -61 0
-102 78 0
-102 47 0
-102 33 0
-102 -19 0
-102 10 0
102 -40 76 20 72 61 -78 -47 -33 19 -10 0
-103 74 0
-103 25 0
-103 42 0
-103 -20 0
-103 78 0
-103 -45 0
-103 -6 0
-103 57 0
-103 -75 0
-103 -12 0
103 -74 -25 -42 20 -78 45 6 -57 75 12 0
-104 -65 0
-104 92 0
-104 68 0
-104 37 0
-104 42 0
-104 -82 0
-104 76 0
-104 79 0
-104 6 0
-104 4 0
104 65 -92 -68 -37 -42 82 -76 -79 -6 -4 0
-105 -100 0
-105 -67 0
-105 -98 0
-105 37 0
-105 16 0
-105 -49 0
-105 25 0
-105 -50 0
-105 83 0
-105 -56 0
105 100 67 98 -37 -16 49 -25 50 -83 56 0
-106 25 0
-106 -63 0
-106 -29 0
-106 48 0
-106 27 0
-106 1 0
-106 94 0
-106 -60 0
-106 -49 0
-106 -80 0
106 -25 63 29 -48 -27 -1 -94 60 49 80 0
-107 -70 0
-107 60 0
-107 -13 0
-107 32 0
-107 -5 0
-107 69 0
-107 73 0
-107 -85 0
-107 -57 0
-107 29 0
107 70 -60 13 -32 5 -69 -73 85 57 -29 0
-108 -70 0
-108 57 0
-108 -100 0
-108 6 0
-108 27 0
-108 -66 0
-108 86 0
-108 -84 0
-108 45 0
-108 -50 0
108 70 -57 100 -6 -27 66 -86 84 -45 50 0
-109 77 0
-109 -29 0
-109 62 0
-109 68 0
-109 -100 0
-109 81 0
-109 -59 0
-109 -6 0
-109 -46 0
-109 -80 0
109 -77 29 -62 -68 100 -81 59 6 46 80 0
-110 -24 0
-110 90 0
-110 -6 0
-110 -89 0
-110 -56 0
-110 -31 0
-110 -86 0
-110 91 0
-110 -11 0
-110 -40 0
110 24 -90 6 89 56 31 86 -91 11 40 0
101 102 103 104 105 106 107 108 109 110 0
-111 -28 0
-111 -14 0
-111 29 0
-111 -52 0
-111 -73 0
-111 -59 0
-111 -71 0
-111 81 0
-111 -95 0
-111 69 0
111 28 14 -29 52 73 59 71 -81 95 -69 0
-112 54 0
-112 94 0
-112 17 0
-112 10 0
-112 -16 0
-112 -92 0
-112 86 0
-112 -6 0
-112 8 0
-112 98 0
112 -54 -94 -17 -10 16 92 -86 6 -8 -98 0
-113 44 0
-113 -83 0
-113 -84 0
-113 29 0
-113 43 0
-113 -67 0
-113 76 0
-113 26 0
-113 -77 0
-113 95 0
113 -44 83 84 -29 -43 67 -76 -26 77 -95 0
-114 83 0
-114 -80 0
-114 -73 0
-114 47 0
-114 -27 0
-114 -92 0
-114 94 0
-114 87 0
-114 93 0
-114 -75 0
114 -83 80 73 -47 27 92 -94 -87 -93 75 0
-115 58 0
-115 97 0
-115 84 0
-115 44 0
-115 65 0
-115 -85 0
-115 13 0
-115 55 0
-115 6 0
-115 -38 0
115 -58 -97 -84 -44 -65 85 -13 -55 -6 38 0
-116 -89 0
-116 -2 0
-116 30 0
-116 16 0
-116 63 0
-116 -49 0
-116 33 0
-116 6 0
-116 9 0
-116 87 0
116 89 2 -30 -16 -63 49 -33 -6 -9 -87 0
-117 -17 0
-117 -51 0
-117 -1 0
-117 -25 0
-117 -79 0
-117 39 0
-117 23 0
-117 -36 0
-117 -7 0
-117 -4 0
117 17 51 1 25 79 -39 -23 36 7 4 0
-118 -42 0
-118 -44 0
-118 -23 0
-118 15 0
-118 76 0
-118 -37 0
-118 46 0
-118 57 0
-118 39 0
-118 -94 0
118 42 44 23 -15 -76 37 -46 -57 -39 94 0
-119 -34 0
-119 -64 0
-119 72 0
-119 -66 0
-119 -92 0
-119 62 0
-119 14 0
-119 52 0
-119 15 0
-119 87 0
119 34 64 -72 66 92 -62 -14 -52 -15 -87 0
-120 -85 0
-120 100 0
-120 59 0
-120 -60 0
-120 -1 0
-120 -70 0
-120 -46 0
-120 -84 0
-120 -73 0
-120 92 0
120 85 -100 -59 60 1 70 46 84 73 -92 0
111 112 113 114 115 116 117 118 119 120 0
-121 -14 0
-121 89 0
-121 -83 0
-121 35 0
-121 91 0
-121 26 0
-121 9 0
-121 40 0
-121 -75 0
-121 46 0
121 14 -89 83 -35 -91 -26 -9 -40 75 -46 0
-122 -51 0
-122 29 0
-122 47 0
-122 50 0
-122 -16 0
-122 -34 0
-122 18 0
-122 -54 0
-122 80 0
-122 -24 0
122 51 -29 -47 -50 16 34 -18 54 -80 24 0
-123 19 0
-123 99 0
-123 54 0
-123 -85 0
-123 -82 0
-123 -26 0
-123 -79 0
-123 60 0
-123 -100 0
-123 8 0
123 -19 -99 -54 85 82 26 79 -60 100 -8 0
-124 -51 0
-124 36 0
-124 -93 0
-124 -87 0
-124 -25 0
-124 -38 0
-124 83 0
-124 -63 0
-124 -1 0
-124 -33 0
124 51 -36 93 87 25 38 -83 63 1 33 0
-125 66 0
-125 48 0
-125 -55 0
-125 -87 0
-125 32 0
-125 28 0
-125 79 0
-125 -59 0
-125 -76 0
-125 27 0
125 -66 -48 55 87 -32 -28 -79 59 76 -27 0
-126 97 0
-126 15 0
-126 -16 0
-126 -88 0
-126 -7 0
-126 -96 0
-126 36 0
-126 -43 0
-126 -23 0
-126 58 0
126 -97 -15 16 88 7 96 -36 43 23 -58 0
-127 -86 0
-127 -39 0
-127 60 0
-127 -43 0
-127 25 0
-127 -19 0
-127 -78 0
-127 29 0
-127 56 0
-127 -58 0
127 86 39 -60 43 -25 19 78 -29 -56 58 0
-128 68 0
-128 82 0
-128 70 0
-128 -8 0
-128 -46 0
-128 61 0
-128 25 0
-128 -44 0
-128 37 0
-128 40 0
128 -68 -82 -70 8 46 -61 -25 44 -37 -40 0
-129 90 0
-129 13 0
-129 72 0
-129 37 0
-129 21 0
-129 -43 0
-129 15 0
-129 71 0
-129 -2 0
-129 10 0
129 -90 -13 -72 -37 -21 43 -15 -71 2 -10 0
-130 45 0
-130 56 0
-130 68 0
-130 -47 0
-130 -59 0
-130 -86 0
-130 -93 0
-130 52 0
-130 25 0
-130 11 0
130 -45 -56 -68 47 59 86 93 -52 -25 -11 0
121 122 123 124 125 126 127 128 129 130 0
-131 43 0
-131 -52 0
-131 -90 0
-131 -98 0
-131 -28 0
-131 -25 0
-131 14 0
-131 88 0
-131 -36 0
-131 84 0
131 -43 52 90 98 28 25 -14 -88 36 -84 0
-132 52 0
-132 -89 0
-132 -55 0
-132 -9 0
-132 -11 0
-132 -94 0
-132 -61 0
-132 -71 0
-132 -96 0
-132 31 0
132 -52 89 55 9 11 94 61 71 96 -31 0
-133 48 0
-133 -69 0
-133 77 0
-133 -52 0
-133 56 0
-133 -99 0
-133 -64 0
-133 -89 0
-133 -5 0
-133 21 0
133 -48 69 -77 52 -56 99 64 89 5 -21 0
-134 51 0
-134 92 0
-134 82 0
-134 96 0
-134 -83 0
-134 44 0
-134 6 0
-134 -65 0
-134 10 0
-134 74 0
134 -51 -92 -82 -96 83 -44 -6 65 -10 -74 0
-135 -75 0
-135 67 0
-135 79 0
-135 -33 0
-135 69 0
-135 -62 0
-135 98 0
-135 99 0
-135 18 0
-135 100 0
135 75 -67 -79 33 -69 62 -98 -99 -18 -100 0
-136 -95 0
-136 -35 0
-136 -76 0
-136 -61 0
-136 -73 0
-136 74 0
-136 -91 0
-136 4 0
-136 -89 0
-136 83 0
136 95 35 76 61 73 -74 91 -4 89 -83 0
-137 74 0
-137 -73 0
-137 69 0
-137 33 0
-137 75 0
-137 62 0
-137 35 0
-137 66 0
-137 61 0
-137 -96 0
137 -74 73 -69 -33 -75 -62 -35 -66 -61 96 0
-138 -94 0
-138 44 0
-138 -31 0
-138 45 0
-138 -49 0
-138 -85 0
-138 -68 0
-138 -9 0
-138 -76 0
-138 51 0
138 94 -44 31 -45 49 85 68 9 76 -51 0
-139 -70 0
-139 87 0
-139 84 0
-139 -62 0
-139 97 0
-139 50 0
-139 8 0
-139 11 0
-139 -47 0
-139 98 0
139 70 -87 -84 62 -97 -50 -8 -11 47 -98 0
-140 15 0
-140 -89 0
-140 -43 0
-140 98 0
-140 47 0
-140 -94 0
-140 56 0
-140 86 0
-140 21 0
-140 28 0
140 -15 89 43 -98 -47 94 -56 -86 -21 -28 0
131 132 133 134 135 136 137 138 139 140 0
-141 -94 0
-141 -98 0
-141 -33 0
-141 -42 0
-141 89 0
-141 -55 0
-141 -14 0
-141 78 0
-141 49 0
-141 60 0
141 94 98 33 42 -89 55 14 -78 -49 -60 0
-142 -67 0
-142 -60 0
-142 -11 0
-142 38 0
-142 64 0
-142 -35 0
-142 -3 0
-142 22 0
-142 -14 0
-142 -17 0
142 67 60 11 -38 -64 35 3 -22 14 17 0
-143 -3 0
-143 13 0
-143 51 0
-143 -72 0
-143 -39 0
-143 1 0
-143 -68 0
-143 -35 0
-143 -71 0
-143 -78 0
143 3 -13 -51 72 39 -1 68 35 71 78 0
-144 97 0
-144 -23 0
-144 29 0
-144 -39 0
-144 -81 0
-144 -60 0
-144 -42 0
-144 24 0
-144 1 0
-144 -83 0
144 -97 23 -29 39 81 60 42 -24 -1 83 0
-145 26 0
-145 19 0
-145 79 0
-145 -7 0
-145 -34 0
-145 -13 0
-145 96 0
-145 -97 0
-145 -95 0
-145 24 0
145 -26 -19 -79 7 34 13 -96 97 95 -24 0
-146 64 0
-146 -94 0
-146 78 0
-146 44 0
-146 -62 0
-146 -5 0
-146 28 0
-146 -84 0
-146 -30 0
-146 7 0
146 -64 94 -78 -44 62 5 -28 84 30 -7 0
-147 84 0
-147 32 0
-147 81 0
-147 -57 0
-147 -38 0
-147 41 0
-147 -36 0
-147 -78 0
-147 -12 0
-147 -6 0
147 -84 -32 -81 57 38 -41 36 78 12 6 0
-148 -47 0
-148 -80 0
-148 72 0
-148 51 0
-148 2 0
-148 -1 0
-148 22 0
-148 -42 0
-148 -79 0
-148 -71 0
148 47 80 -72 -51 -2 1 -22 42 79 71 0
-149 -28 0
-149 75 0
-149 68 0
-149 70 0
-149 -82 0
-149 -93 0
-149 -87 0
-149 -90 0
-149 -30 0
-149 1 0
149 28 -75 -68 -70 82 93 87 90 30 -1 0
-150 14 0
-150 -47 0
-150 55 0
-150 75 0
-150 -98 0
-150 7 0
-150 91 0
-150 -82 0
-150 90 0
-150 48 0
150 -14 47 -55 -75 98 -7 -91 82 -90 -48 0
141 142 143 144 145 146 147 148 149 150 0
-151 -34 0
-151 9 0
-151 88 0
-151 -16 0
-151 8 0
-151 58 0
-151 -3 0
-151 -92 0
-151 81 0
-151 89 0
151 34 -9 -88 16 -8 -58 3 92 -81 -89 0
-152 -68 0
-152 -91 0
-152 49 0
-152 -14 0
-152 26 0
-152 30 0
-152 8 0
-152 -80 0
-152 74 0
-152 12 0
152 68 91 -49 14 -26 -30 -8 80 -74 -12 0
-153 35 0
-153 -90 0
-153 -86 0
-153 71 0
-153 -32 0
-153 -40 0
-153 80 0
-153 75 0
-153 63 0
-153 -22 0
153 -35 90 86 -71 32 40 -80 -75 -63 22 0
-154 -37 0
-154 72 0
-154 -29 0
-154 -97 0
-154 24 0
-154 69 0
-154 -21 0
-154 6 0
-154 58 0
-154 -77 0
154 37 -72 29 97 -24 -69 21 -6 -58 77 0
-155 -35 0
-155 100 0
-155 18 0
-155 -90 0
-155 -70 0
-155 86 0
-155 92 0
-155 62 0
-155 23 0
-155 -56 0
155 35 -100 -18 90 70 -86 -92 -62 -23 56 0
-156 51 0
-156 35 0
-156 -79 0
-156 85 0
-156 -65 0
-156 -20 0
-156 87 0
-156 28 0
-156 -95 0
-156 96 0
156 -51 -35 79 -85 65 20 -87 -28 95 -96 0
-157 46 0
-157 45 0
-157 59 0
-157 71 0
-157 -24 0
-157 -2 0
-157 -67 0
-157 90 0
-157 31 0
-157 -43 0
157 -46 -45 -59 -71 24 2 67 -90 -31 43 0
-158 13 0
-158 22 0
-158 98 0
-158 -52 0
-158 90 0
-158 -21 0
-158 92 0
-158 72 0
-158 -65 0
-158 33 0
158 -13 -22 -98 52 -90 21 -92 -72 65 -33 0
-159 -75 0
-159 -66 0
-159 59 0
-159 -58 0
-159 11 0
-159 29 0
-159 30 0
-159 -53 0
-159 77 0
-159 -45 0
159 75 66 -59 58 -11 -29 -30 53 -77 45 0
-160 -77 0
-160 -25 0
-160 3 0
-160 1 0
-160 99 0
-160 -71 0
-160 -100 0
-160 68 0
-160 48 0
-160 51 0
160 77 25 -3 -1 -99 71 100 -68 -48 -51 0
151 152 153 154 155 156 157 158 159 160 0
-161 91 0
-161 -22 0
-161 40 0
-161 80 0
-161 36 0
-161 96 0
-161 -72 0
-161 -7 0
-161 60 0
-161 82 0
161 -91 22 -40 -80 -36 -96 72 7 -60 -82 0
-162 65 0
-162 71 0
-162 -72 0
-162 4 0
-162 -93 0
-162 -42 0
-162 44 0
-162 21 0
-162 57 0
-162 -23 0
162 -65 -71 72 -4 93 42 -44 -21 -57 23 0
-163 10 0
-163 95 0
-163 -75 0
-163 19 0
-163 -34 0
-163 7 0
-163 -25 0
-163 -63 0
-163 1 0
-163 -31 0
163 -10 -95 75 -19 34 -7 25 63 -1 31 0
-164 -89 0
-164 57 0
-164 44 0
-164 35 0
-164 16 0
-164 68 0
-164 -60 0
-164 -23 0
-164 1 0
-164 -43 0
164 89 -57 -44 -35 -16 -68 60 23 -1 43 0
-165 33 0
-165 -73 0
-165 20 0
-165 94 0
-165 92 0
-165 28 0
-165 29 0
-165 14 0
-165 19 0
-165 -54 0
165 -33 73 -20 -94 -92 -28 -29 -14 -19 54 0
-166 -81 0
-166 -7 0
-166 34 0
-166 -19 0
-166 21 0
-166 45 0
-166 37 0
-166 88 0
-166 43 0
-166 -74 0
166 81 7 -34 19 -21 -45 -37 -88 -43 74 0
-167 98 0
-167 -24 0
-167 -2 0
-167 67 0
-167 17 0
-167 -47 0
-167 63 0
-167 48 0
-167 64 0
-167 15 0
167 -98 24 2 -67 -17 47 -63 -48 -64 -15 0
-168 -88 0
-168 3 0
-168 62 0
-168 -13 0
-168 50 0
-168 -1 0
-168 -78 0
-168 90 0
-168 -44 0
-168 30 0
168 88 -3 -62 13 -50 1 78 -90 44 -30 0
-169 -74 0
-169 36 0
-169 -79 0
-169 -7 0
-169 -2 0
-169 96 0
-169 89 0
-169 -35 0
-169 60 0
-169 51 0
169 74 -36 79 7 2 -96 -89 35 -60 -51 0
-170 -96 0
-170 -16 0
-170 87 0
-170 59 0
-170 -86 0
-170 5 0
-170 -91 0
-170 44 0
-170 64 0
-170 -79 0
170 96 16 -87 -59 86 -5 91 -44 -64 79 0
161 162 163 164 165 166 167 168 169 170 0
-171 50 0
-171 76 0
-171 -2 0
-171 -14 0
-171 -57 0
-171 17 0
-171 -68 0
-171 -1 0
-171 -27 0
-171 -94 0
171 -50 -76 2 14 57 -17 68 1 27 94 0
-172 -52 0
-172 33 0
-172 -87 0
-172 53 0
-172 94 0
-172 69 0
-172 80 0
-172 -27 0
-172 -57 0
-172 91 0
172 52 -33 87 -53 -94 -69 -80 27 57 -91 0
-173 -60 0
-173 -22 0
-173 -78 0
-173 -42 0
-173 -7 0
-173 62 0
-173 -83 0
-173 -75 0
-173 -99 0
-173 -51 0
173 60 22 78 42 7 -62 83 75 99 51 0
-174 -89 0
-174 -73 0
-174 -34 0
-174 -14 0
-174 16 0
-174 55 0
-174 -85 0
-174 29 0
-174 -51 0
-174 42 0
174 89 73 34 14 -16 -55 85 -29 51 -42 0
-175 45 0
-175 61 0
-175 -18 0
-175 -90 0
-175 -85 0
-175 40 0
-175 78 0
-175 -64 0
-175 13 0
-175 -58 0
175 -45 -61 18 90 85 -40 -78 64 -13 58 0
-176 77 0
-176 6 0
-176 -7 0
-176 -17 0
-176 20 0
-176 27 0
-176 -25 0
-176 -23 0
-176 91 0
-176 74 0
176 -77 -6 7 17 -20 -27 25 23 -91 -74 0
-177 19 0
-177 -84 0
-177 68 0
-177 72 0
-177 99 0
-177 26 0
-177 -21 0
-177 16 0
-177 -9 0
-177 91 0
177 -19 84 -68 -72 -99 -26 21 -16 9 -91 0
-178 -9 0
-178 40 0
-178 -87 0
-178 71 0
-178 -95 0
-178 -14 0
-178 -44 0
-178 16 0
-178 -88 0
-178 -6 0
178 9 -40 87 -71 95 14 44 -16 88 6 0
-179 22 0
-179 -75 0
-179 44 0
-179 40 0
-179 33 0
-179 94 0
-179 -37 0
-179 -20 0
-179 -71 0
-179 -13 0
179 -22 75 -44 -40 -33 -94 37 20 71 13 0
-180 97 0
-180 -96 0
-180 -100 0
-180 7 0
-180 -6 0
-180 14 0
-180 -37 0
-180 -28 0
-180 73 0
-180 -76 0
180 -97 96 100 -7 6 -14 37 28 -73 76 0
171 172 173 174 175 176 177 178 179 180 0
-181 47 0
-181 -10 0
-181 57 0
-181 -68 0
-181 18 0
-181 -46 0
-181 -11 0
-181 38 0
-181 -99 0
-181 -61 0
181 -47 10 -57 68 -18 46 11 -38 99 61 0
-182 -21 0
-182 15 0
-182 96 0
-182 -82 0
-182 -45 0
-182 42 0
-182 1 0
-182 -87 0
-182 65 0
-182 9 0
182 21 -15 -96 82 45 -42 -1 87 -65 -9 0
-183 -55 0
-183 65 0
-183 -89 0
-183 -70 0
-183 -50 0
-183 15 0
-183 -22 0
-183 99 0
-183 -12 0
-183 67 0
183 55 -65 89 70 50 -15 22 -99 12 -67 0
-184 -75 0
-184 24 0
-184 -52 0
-184 51 0
-184 96 0
-184 37 0
-184 -38 0
-184 91 0
-184 -77 0
-184 2 0
184 75 -24 52 -51 -96 -37 38 -91 77 -2 0
-185 -79 0
-185 68 0
-185 61 0
-185 97 0
-185 -87 0
-185 -98 0
-185 88 0
-185 -28 0
-185 93 0
-185 23 0
185 79 -68 -61 -97 87 98 -88 28 -93 -23 0
-186 -55 0
-186 37 0
-186 -27 0
-186 99 0
-186 -17 0
-186 7 0
-186 -68 0
-186 21 0
-186 5 0
-186 100 0
186 55 -37 27 -99 17 -7 68 -21 -5 -100 0
-187 -43 0
-187 -88 0
-187 -24 0
-187 -47 0
-187 95 0
-187 -57 0
-187 -70 0
-187 5 0
-187 86 0
-187 13 0
187 43 88 24 47 -95 57 70 -5 -86 -13 0
-188 -77 0
-188 -57 0
-188 -40 0
-188 81 0
-188 -39 0
-188 -62 0
-188 75 0
-188 -91 0
-188 78 0
-188 -49 0
188 77 57 40 -81 39 62 -75 91 -78 49 0
-189 78 0
-189 64 0
-189 -76 0
-189 9 0
-189 -79 0
-189 18 0
-189 -90 0
-189 32 0
-189 -35 0
-189 37 0
189 -78 -64 76 -9 79 -18 90 -32 35 -37 0
-190 3 0
-190 -13 0
-190 86 0
-190 59 0
-190 -4 0
-190 66 0
-190 -82 0
-190 -89 0
-190 -90 0
-190 57 0
190 -3 13 -86 -59 4 -66 82 89 90 -57 0
181 182 183 184 185 186 187 188 189 190 0
-191 -44 0
-191 95 0
-191 36 0
-191 -46 0
-191 -58 0
-191 8 0
-191 -3 0
-191 33 0
-191 -30 0
-191 -16 0
191 44 -95 -36 46 58 -8 3 -33 30 16 0
-192 54 0
-192 85 0
-192 -1 0
-192 7 0
-192 -62 0
-192 74 0
-192 -71 0
-192 -27 0
-192 42 0
-192 29 0
192 -54 -85 1 -7 62 -74 71 27 -42 -29 0
-193 22 0
-193 96 0
-193 -35 0
-193 -89 0
-193 -70 0
-193 -94 0
-193 58 0
-193 64 0
-193 -97 0
-193 -39 0
193 -22 -96 35 89 70 94 -58 -64 97 39 0
-194 46 0
-194 -13 0
-194 33 0
-194 -75 0
-194 -53 0
-194 9 0
-194 15 0
-194 -93 0
-194 -28 0
-194 -8 0
194 -46 13 -33 75 53 -9 -15 93 28 8 0
-195 -52 0
-195 -77 0
-195 -90 0
-195 -11 0
-195 10 0
-195 2 0
-195 -15 0
-195 -21 0
-195 -7 0
-195 67 0
195 52 77 90 11 -10 -2 15 21 7 -67 0
-196 50 0
-196 47 0
-196 -67 0
-196 -11 0
-196 -41 0
-196 18 0
-196 -46 0
-196 -78 0
-196 21 0
-196 -22 0
196 -50 -47 67 11 41 -18 46 78 -21 22 0
-197 78 0
-197 31 0
-197 20 0
-197 66 0
-197 100 0
-197 -34 0
-197 93 0
-197 12 0
-197 23 0
-197 33 0
197 -78 -31 -20 -66 -100 34 -93 -12 -23 -33 0
-198 48 0
-198 75 0
-198 -94 0
-198 40 0
-198 56 0
-198 -68 0
-198 -25 0
-198 -50 0
-198 -27 0
-198 71 0
198 -48 -75 94 -40 -56 68 25 50 27 -71 0
-199 71 0
-199 -64 0
-199 -17 0
-199 -14 0
-199 60 0
-199 67 0
-199 -66 0
-199 -70 0
-199 -99 0
-199 28 0
199 -71 64 17 14 -60 -67 66 70 99 -28 0
-200 55 0
-200 -19 0
-200 -37 0
-200 56 0
-200 -29 0
-200 54 0
-200 70 0
-200 -30 0
-200 -47 0
-200 66 0
200 -55 19 37 -56 29 -54 -70 30 47 -66 0
191 192 193 194 195 196 197 198 199 200 0
